qbf_easy_train/easy_5531_SAT.qdimacs
p cnf 21 49
a 9 10 0
e 1 2 3 4 5 6 7 8 11 12 13 14 15 16 17 18 19 20 21 0
-1 2 -3 0
1 -2 -3 0
-1 -2 3 0
1 2 3 0
-5 3 0
-5 4 0
-3 -4 5 0
-8 6 0
-8 -7 0
-6 7 8 0
9 5 0
9 -8 0
-5 8 -9 0
-10 -6 0
-10 -6 0
6 10 0
4 -11 -12 0
-4 11 -12 0
4 11 12 0
-4 -11 12 0
-13 -10 0
-13 12 0
10 -12 13 0
14 -9 0
14 13 0
9 -13 -14 0
15 -2 0
15 11 0
2 -11 -15 0
-17 -15 0
-17 16 0
15 -16 17 0
2 -18 -19 0
-2 18 -19 0
2 18 19 0
-2 -18 19 0
-17 -19 -20 0
17 19 -20 0
-17 19 20 0
17 -19 20 0
14 -20 -21 0
-14 20 -21 0
14 20 21 0
-14 -20 21 0
-12 -8 10 -9 0
2 3 15 -17 -7 -19 10 0
-19 -18 2 4 3 0
-9 14 11 -15 0
21 0
