sat_easy_train/easy_5531_SAT.dimacs
p cnf 148 501
-3 1 0
-3 -2 0
-1 2 3 0
5 -3 0
5 -4 0
3 4 -5 0
-7 -5 0
-7 6 0
5 -6 7 0
9 8 0
9 -2 0
-8 2 -9 0
-13 -11 0
-13 -12 0
11 12 13 0
-14 -10 0
-14 13 0
10 -13 14 0
-15 9 0
-15 -14 0
-9 14 15 0
15 8 -16 0
-15 -8 -16 0
15 -8 16 0
-15 8 16 0
-18 -16 0
-18 17 0
16 -17 18 0
21 19 0
21 -20 0
-19 20 -21 0
-22 -21 0
-22 9 0
21 -9 22 0
-24 -12 0
-24 23 0
12 -23 24 0
25 -24 0
25 17 0
24 -17 -25 0
26 -22 0
26 25 0
22 -25 -26 0
-8 -24 -27 0
8 24 -27 0
-8 24 27 0
8 -24 27 0
26 27 -28 0
-26 -27 -28 0
26 -27 28 0
-26 27 28 0
-29 -10 0
-29 21 0
10 -21 29 0
30 25 0
30 -26 0
-25 26 -30 0
29 30 -31 0
-29 -30 -31 0
29 -30 31 0
-29 30 31 0
-32 -17 0
-32 -31 0
17 31 32 0
33 28 0
33 32 0
-28 -32 -33 0
34 -25 0
34 3 0
25 -3 -34 0
35 19 0
35 -34 0
-19 34 -35 0
-36 -33 0
-36 35 0
33 -35 36 0
-37 -18 0
-37 36 0
18 -36 37 0
-39 25 0
-39 -38 0
-25 38 39 0
10 40 0
-10 40 0
17 29 -41 0
-17 -29 -41 0
17 -29 41 0
-17 29 41 0
41 22 -42 0
-41 -22 -42 0
41 -22 42 0
-41 22 42 0
43 -42 0
43 4 0
42 -4 -43 0
44 40 0
44 43 0
-40 -43 -44 0
-45 -39 0
-45 -44 0
39 44 45 0
-47 46 0
-47 8 0
-46 -8 47 0
48 -1 0
48 41 0
1 -41 -48 0
49 -24 0
49 -3 0
24 3 -49 0
-50 49 0
-50 46 0
-49 -46 50 0
-51 -50 0
-51 -11 0
50 11 51 0
52 -48 0
52 -51 0
48 51 -52 0
-53 38 0
-53 19 0
-38 -19 53 0
52 -53 -54 0
-52 53 -54 0
52 53 54 0
-52 -53 54 0
55 47 0
55 -54 0
-47 54 -55 0
56 -17 0
56 -3 0
17 3 -56 0
57 -50 0
57 -56 0
50 56 -57 0
55 57 -58 0
-55 -57 -58 0
55 -57 58 0
-55 57 58 0
-59 -16 0
-59 19 0
16 -19 59 0
59 46 -60 0
-59 -46 -60 0
59 -46 60 0
-59 46 60 0
-61 -12 0
-61 1 0
12 -1 61 0
-63 61 0
-63 62 0
-61 -62 63 0
60 63 -64 0
-60 -63 -64 0
60 -63 64 0
-60 63 64 0
-65 38 0
-65 -17 0
-38 17 65 0
66 -24 0
66 14 0
24 -14 -66 0
-66 -56 -67 0
66 56 -67 0
-66 56 67 0
66 -56 67 0
68 67 0
68 -6 0
-67 6 -68 0
-69 65 0
-69 -68 0
-65 68 69 0
-70 64 0
-70 -69 0
-64 69 70 0
-24 17 -71 0
24 -17 -71 0
-24 -17 71 0
24 17 71 0
-72 -61 0
-72 -61 0
61 72 0
-72 -19 -73 0
72 19 -73 0
-72 19 73 0
72 -19 73 0
-17 -23 -74 0
17 23 -74 0
-17 23 74 0
17 -23 74 0
-75 74 0
-75 -38 0
-74 38 75 0
76 73 0
76 75 0
-73 -75 -76 0
77 -71 0
77 -76 0
71 76 -77 0
-52 9 -78 0
52 -9 -78 0
-52 -9 78 0
52 9 78 0
-79 77 0
-79 -78 0
-77 78 79 0
-80 70 0
-80 79 0
-70 -79 80 0
-58 -80 -81 0
58 80 -81 0
-58 80 81 0
58 -80 81 0
-82 45 0
-82 -81 0
-45 81 82 0
-83 23 0
-83 46 0
-23 -46 83 0
83 6 -84 0
-83 -6 -84 0
83 -6 84 0
-83 6 84 0
85 82 0
85 -84 0
-82 84 -85 0
-86 37 0
-86 -85 0
-37 85 86 0
87 7 0
87 -86 0
-7 86 -87 0
6 -5 -88 0
-6 5 -88 0
6 5 88 0
-6 -5 88 0
72 -23 -89 0
-72 23 -89 0
72 23 89 0
-72 -23 89 0
-88 89 -90 0
88 -89 -90 0
-88 -89 90 0
88 89 90 0
83 11 -91 0
-83 -11 -91 0
83 -11 91 0
-83 11 91 0
-92 -90 0
-92 -91 0
90 91 92 0
-11 -62 -93 0
11 62 -93 0
-11 62 93 0
11 -62 93 0
93 83 -94 0
-93 -83 -94 0
93 -83 94 0
-93 83 94 0
46 -61 -95 0
-46 61 -95 0
46 61 95 0
-46 -61 95 0
-96 -95 0
-96 23 0
95 -23 96 0
-94 -96 -97 0
94 96 -97 0
-94 96 97 0
94 -96 97 0
-98 73 0
-98 -20 0
-73 20 98 0
99 4 0
99 -98 0
-4 98 -99 0
-99 -10 -100 0
99 10 -100 0
-99 10 100 0
99 -10 100 0
101 -56 0
101 -100 0
56 100 -101 0
102 -97 0
102 101 0
97 -101 -102 0
92 102 -103 0
-92 -102 -103 0
92 -102 103 0
-92 102 103 0
-104 -95 0
-104 -17 0
95 17 104 0
105 -104 0
105 60 0
104 -60 -105 0
106 -105 0
106 99 0
105 -99 -106 0
107 62 0
107 11 0
-62 -11 -107 0
108 42 0
108 107 0
-42 -107 -108 0
109 24 0
109 17 0
-24 -17 -109 0
111 -109 0
111 -110 0
109 110 -111 0
-112 108 0
-112 -111 0
-108 111 112 0
113 106 0
113 112 0
-106 -112 -113 0
-114 50 0
-114 109 0
-50 -109 114 0
-115 104 0
-115 10 0
-104 -10 115 0
-24 -115 -116 0
24 115 -116 0
-24 115 116 0
24 -115 116 0
-117 116 0
-117 -38 0
-116 38 117 0
-118 114 0
-118 117 0
-114 -117 118 0
-113 118 -119 0
113 -118 -119 0
-113 -118 119 0
113 118 119 0
120 63 0
120 -21 0
-63 21 -120 0
121 -63 0
121 -120 0
63 120 -121 0
122 -25 0
122 26 0
25 -26 -122 0
-123 -122 0
-123 20 0
122 -20 123 0
-124 -121 0
-124 123 0
121 -123 124 0
-125 119 0
-125 124 0
-119 -124 125 0
21 29 -126 0
-21 -29 -126 0
21 -29 126 0
-21 29 126 0
-26 -126 -127 0
26 126 -127 0
-26 126 127 0
26 -126 127 0
125 -127 -128 0
-125 127 -128 0
125 127 128 0
-125 -127 128 0
-103 128 -129 0
103 -128 -129 0
-103 -128 129 0
103 128 129 0
13 25 -130 0
-13 -25 -130 0
13 -25 130 0
-13 25 130 0
131 -9 0
131 -104 0
9 104 -131 0
-132 -131 0
-132 115 0
131 -115 132 0
-130 132 -133 0
130 -132 -133 0
-130 -132 133 0
130 132 133 0
134 -116 0
134 59 0
116 -59 -134 0
-135 25 0
-135 -10 0
-25 10 135 0
136 -135 0
136 -23 0
135 23 -136 0
-134 136 -137 0
134 -136 -137 0
-134 -136 137 0
134 136 137 0
-138 46 0
-138 -68 0
-46 68 138 0
62 21 -139 0
-62 -21 -139 0
62 -21 139 0
-62 21 139 0
-140 138 0
-140 139 0
-138 -139 140 0
-141 -56 0
-141 1 0
56 -1 141 0
-140 -141 -142 0
140 141 -142 0
-140 141 142 0
140 -141 142 0
-48 143 0
48 143 0
-142 -143 -144 0
142 143 -144 0
-142 143 144 0
142 -143 144 0
137 144 -145 0
-137 -144 -145 0
137 -144 145 0
-137 144 145 0
-146 -133 0
-146 145 0
133 -145 146 0
147 129 0
147 146 0
-129 -146 -147 0
87 147 -148 0
-87 -147 -148 0
87 -147 148 0
-87 147 148 0
-92 120 -13 -78 116 -20 0
123 70 -97 0
73 -127 0
-109 -146 0
-97 -10 0
124 39 108 136 0
25 -60 -116 0
-96 104 115 105 -102 -78 0
-122 95 0
121 -46 -70 126 0
63 -60 -34 -109 128 0
31 -28 68 -64 135 0
-89 -101 61 83 0
-130 88 -100 36 94 0
-111 -34 -87 -100 -37 40 0
-66 -109 113 28 102 27 0
-87 117 38 120 20 0
-124 100 -113 136 78 0
3 -37 46 -73 0
31 24 0
70 84 95 -57 -56 0
106 -110 132 0
26 94 -89 141 138 -110 0
-59 -55 15 117 -124 -130 0
-121 -141 148 12 -101 0
-14 90 -8 0
99 -109 -16 -105 0
83 -43 -48 70 137 -123 0
86 17 -135 -110 -78 -93 0
130 85 0
-15 -110 89 0
96 -13 0
-127 108 -33 -86 114 0
70 -147 30 -79 0
143 146 -145 0
-64 -102 132 61 -144 0
-3 65 29 0
-48 47 88 -61 0
112 -84 57 -145 148 -75 0
-48 -133 -116 0
-44 137 -131 71 -89 0
-13 139 103 -67 -131 0
-43 -28 77 102 16 -73 0
-66 26 51 130 1 121 0
-118 24 -14 0
-72 -127 92 -34 39 -143 0
-57 -88 -125 -112 47 0
-113 -82 -2 -11 -80 -78 0
122 70 108 0
6 -58 116 79 64 23 0
30 -78 135 0
48 -143 138 121 0
-112 -3 12 -121 -46 20 0
107 33 0
61 14 -8 28 0
108 -139 0
-127 -124 95 -107 -103 18 0
46 126 28 57 -142 97 0
35 116 -127 0
-9 79 107 132 0
97 95 125 61 -7 0
7 87 55 -109 132 114 0
-25 51 -107 0
1 85 -97 94 -59 0
81 -25 0
148 0
